(Al) Source:POSCAR_0;Expand:10,10,1;Shap
   1.00000000000000     
    69.4082602133760105    0.0000000000000000    0.0000000000000000
     0.0000000000000000   18.2982167486000016    0.0000000000000000
     0.0000000000000000    0.0000000000000000    4.0414000000000003
 310
Selective dynamics
Direct
  0.4999227979872607  0.0009399349717477 -0.0000000000000000   T   T   T
  0.5246843995786448  0.0185099977686818  0.5000000000000000   T   T   T
  0.5180690345960240  0.1316175383978097  0.0000000000000000   T   T   T
  0.5006761516791635  0.3368011483527339 -0.0000000000000000   T   T   T
  0.5001201300844282  0.5652573414549837  0.0000000000000000   T   T   T
  0.4999602450540898  0.7863766514722799  0.0000000000000000   T   T   T
  0.5515425591080030  0.0288018661229821  0.0000000000000000   T   T   T
  0.5456384640126410  0.1435394219607865  0.5000000000000000   T   T   T
  0.5789372924394229  0.0407158060043249  0.5000000000000000   T   T   T
  0.5744048984093848  0.1526816463991731 -0.0000000000000000   T   T   T
  0.5388012242980877  0.2528173401598224 -0.0000000000000000   T   T   T
  0.5316432209083970  0.3518559034876337  0.5000000000000000   T   T   T
  0.5689605899992799  0.2624398930725826  0.5000000000000000   T   T   T
  0.5645332651299466  0.3681344913737785  0.0000000000000000   T   T   T
  0.5305032825776547  0.4601497738616304  0.0000000000000000   T   T   T
  0.5296996165617013  0.5703751330827395  0.5000000000000000   T   T   T
  0.5609796792584846  0.4720647976410343  0.5000000000000000   T   T   T
  0.5594736631223540  0.5801875659114977  0.0000000000000000   T   T   T
  0.5291887175522411  0.6804566998736625  0.0000000000000000   T   T   T
  0.5286934787342851  0.7907949675884764  0.5000000000000000   T   T   T
  0.5582621472050221  0.6897552473631249  0.5000000000000000   T   T   T
  0.5571606514063210  0.8007399818700102 -0.0000000000000000   T   T   T
  0.5280029095020180  0.9004507976279357 -0.0000000000000000   T   T   T
  0.5549068488017157  0.9153127841471499  0.5000000000000000   T   T   T
  0.6069522181262643  0.0516145696852862 -0.0000000000000000   T   T   T
  0.6029234847417531  0.1627563379283683  0.5000000000000000   T   T   T
  0.6352863583797297  0.0627950508706843  0.5000000000000000   T   T   T
  0.6316650902543893  0.1732744645308729  0.0000000000000000   T   T   T
  0.5988037124009420  0.2721381949481275  0.0000000000000000   T   T   T
  0.5947740269741739  0.3795414579627661  0.5000000000000000   T   T   T
  0.6278866789718084  0.2826618382144566  0.5000000000000000   T   T   T
  0.6244013525691112  0.3909013857783254  0.0000000000000000   T   T   T
  0.5915010341380564  0.4858534635157704  0.0000000000000000   T   T   T
  0.5890648276566923  0.5928021734434770  0.5000000000000000   T   T   T
  0.6211582868820502  0.4986451089910947  0.5000000000000000   T   T   T
  0.6183918053660717  0.6067364208634003 -0.0000000000000000   T   T   T
  0.5872003050388416  0.7022268517772668  0.0000000000000000   T   T   T
  0.5850896771743236  0.8142774520992540  0.5000000000000000   T   T   T
  0.6158249243604026  0.7163258303987330  0.5000000000000000   T   T   T
  0.6132322254141918  0.8275154116317426  0.0000000000000000   T   T   T
  0.5824399765400758  0.9274369816415257  0.0000000000000000   T   T   T
  0.6103566975961147  0.9397397203555087  0.5000000000000000   T   T   T
  0.6638525211483073  0.0743608828312500  0.0000000000000000   T   T   T
  0.6603842649086031  0.1846594906818045  0.5000000000000000   T   T   T
  0.6925178568240133  0.0861561713791227  0.5000000000000000   T   T   T
  0.6891833129459687  0.1963059592921368  0.0000000000000000   T   T   T
  0.6569678838854384  0.2941045496376934 -0.0000000000000000   T   T   T
  0.6535921019482084  0.4027826507386388  0.5000000000000000   T   T   T
  0.6858420605479426  0.3059202243991168  0.5000000000000000   T   T   T
  0.6826153632675876  0.4150666901489598 -0.0000000000000000   T   T   T
  0.6504157796397773  0.5112556770816745  0.0000000000000000   T   T   T
  0.6474301883692751  0.6201283642093308  0.5000000000000000   T   T   T
  0.6794259819522821  0.5238876128683263  0.5000000000000000   T   T   T
  0.6763563739508650  0.6329980700505057  0.0000000000000000   T   T   T
  0.6445466273303022  0.7297146622224243  0.0000000000000000   T   T   T
  0.6416461176780945  0.8402540512286498  0.5000000000000000   T   T   T
  0.6732774852722667  0.7426042191023877  0.5000000000000000   T   T   T
  0.6702292268328258  0.8529421610531166 -0.0000000000000000   T   T   T
  0.6386017537356726  0.9515364119400153 -0.0000000000000000   T   T   T
  0.6671271565928353  0.9637130422319637  0.5000000000000000   T   T   T
  0.7211949776699413  0.0979489417993403 -0.0000000000000000   T   T   T
  0.7179488258787536  0.2079492842567144  0.5000000000000000   T   T   T
  0.7499509029284079  0.1096778034933638  0.5000000000000000   T   T   T
  0.7467382535119442  0.2196794499837118  0.0000000000000000   T   T   T
  0.7147046628019086  0.3176963108601491 -0.0000000000000000   T   T   T
  0.7114631494699684  0.4271597170661388  0.5000000000000000   T   T   T
  0.7435339704496642  0.3294847924365953  0.5000000000000000   T   T   T
  0.7403412847746945  0.4393234736854619  0.0000000000000000   T   T   T
  0.7083039178723185  0.5363608759250017 -0.0000000000000000   T   T   T
  0.7051811891241753  0.6456907416888097  0.5000000000000000   T   T   T
  0.7371479499028147  0.5488623960353727  0.5000000000000000   T   T   T
  0.7339870204118240  0.6582860178187955 -0.0000000000000000   T   T   T
  0.7020421611681362  0.7553731157966231 -0.0000000000000000   T   T   T
  0.6988882135892457  0.8654860181498405  0.5000000000000000   T   T   T
  0.7308084272429884  0.7679026111004658  0.5000000000000000   T   T   T
  0.7276157021771713  0.8777583849629514 -0.0000000000000000   T   T   T
  0.6957444361375431  0.9757498217741463  0.0000000000000000   T   T   T
  0.7244221535802366  0.9878022229839967  0.5000000000000000   T   T   T
  0.7787020899296221  0.1214711723714771  0.0000000000000000   T   T   T
  0.7755001579908600  0.2316216689714828  0.5000000000000000   T   T   T
  0.8074031757445582  0.1332014965710589  0.5000000000000000   T   T   T
  0.8041758059507238  0.2436556482008631 -0.0000000000000000   T   T   T
  0.7723156710911071  0.3417197754101224  0.0000000000000000   T   T   T
  0.7691210799375601  0.4516106303772581  0.5000000000000000   T   T   T
  0.8009941474439981  0.3540067176661549  0.5000000000000000   T   T   T
  0.7978338237544670  0.4641297008692292  0.0000000000000000   T   T   T
  0.7659485170154359  0.5613333348156757  0.0000000000000000   T   T   T
  0.7627941061560819  0.6707413508685224  0.5000000000000000   T   T   T
  0.7947150883366075  0.5738663711051833  0.5000000000000000   T   T   T
  0.7915711945320437  0.6831832899242735 -0.0000000000000000   T   T   T
  0.7595721130292549  0.7802677457183986 -0.0000000000000000   T   T   T
  0.7563609677835019  0.8899587471379548  0.5000000000000000   T   T   T
  0.7883942009359725  0.7924333110071263  0.5000000000000000   T   T   T
  0.7851917152771525  0.9018029534147893  0.0000000000000000   T   T   T
  0.7531506518543567 -0.0002214865505100  0.0000000000000000   T   T   T
  0.7819549818429623  0.0114427865186343  0.5000000000000000   T   T   T
  0.8107717009161282  0.0229748544077646  0.0000000000000000   T   T   T
  0.8360029124721685  0.1447457236399033  0.0000000000000000   T   T   T
  0.8327237444383629  0.2556555422002471  0.5000000000000000   T   T   T
  0.8644647772929291  0.1562931359749823  0.5000000000000000   T   T   T
  0.8610956163557021  0.2679524555288719 -0.0000000000000000   T   T   T
  0.8295942061583845  0.3665447899929389 -0.0000000000000000   T   T   T
  0.8265582666740138  0.4770473328833086  0.5000000000000000   T   T   T
  0.8580625943376625  0.3795878531694291  0.5000000000000000   T   T   T
  0.8552393884476464  0.4905074567599331 -0.0000000000000000   T   T   T
  0.8235311170016330  0.5868046995052776  0.0000000000000000   T   T   T
  0.8204841618540728  0.6959093404372777  0.5000000000000000   T   T   T
  0.8524714726711318  0.6000033405321578  0.5000000000000000   T   T   T
  0.8496054538682141  0.7084662444240909 -0.0000000000000000   T   T   T
  0.8173431088197890  0.8046058756412661  0.0000000000000000   T   T   T
  0.8141055372612878  0.9134838882991478  0.5000000000000000   T   T   T
  0.8464556855848362  0.8165425987798800  0.5000000000000000   T   T   T
  0.8430777836612970  0.9249641605589679 -0.0000000000000000   T   T   T
  0.8395331616689348  0.0344363105291226  0.5000000000000000   T   T   T
  0.8682607597241870  0.0456598085888923 -0.0000000000000000   T   T   T
  0.8926574818677868  0.1681853104101343  0.0000000000000000   T   T   T
  0.8892239209791264  0.2804028864298677  0.5000000000000000   T   T   T
  0.9204625745327504  0.1799881492318706  0.5000000000000000   T   T   T
  0.9169955247691739  0.2935978735733946 -0.0000000000000000   T   T   T
  0.8864292373481245  0.3929955700023107  0.0000000000000000   T   T   T
  0.8839822986249255  0.5040229814493751  0.5000000000000000   T   T   T
  0.9146148326403348  0.4066003813066100  0.5000000000000000   T   T   T
  0.9127540968191603  0.5180925553961619  0.0000000000000000   T   T   T
  0.8816005829868538  0.6132507088532483 -0.0000000000000000   T   T   T
  0.8789708574552406  0.7210376273644257  0.5000000000000000   T   T   T
  0.9110512824697292  0.6270783933105366  0.5000000000000000   T   T   T
  0.9087363578398046  0.7338511369403528 -0.0000000000000000   T   T   T
  0.8757982604982157  0.8283686383499882  0.0000000000000000   T   T   T
  0.8721939302538728  0.9363622860055055  0.5000000000000000   T   T   T
  0.9054672658394074  0.8399314125777405  0.5000000000000000   T   T   T
  0.9014034897394061  0.9472691551129582  0.0000000000000000   T   T   T
  0.8969022607186113  0.0568013012038166  0.5000000000000000   T   T   T
  0.9252947912017567  0.0676790770054937 -0.0000000000000000   T   T   T
  0.9476211250968088  0.1933024428598844 -0.0000000000000000   T   T   T
  0.9445706145136780  0.3061004469592968  0.5000000000000000   T   T   T
  0.9746080607782190  0.2045789084465163  0.5000000000000000   T   T   T
  0.9717455519733141  0.3200295837741474 -0.0000000000000000   T   T   T
  0.9427290799184347  0.4198699864489567  0.0000000000000000   T   T   T
  0.9417548759625186  0.5305140367820116  0.5000000000000000   T   T   T
  0.9712657610289960  0.4294981576321277  0.5000000000000000   T   T   T
  0.9709317533219389  0.5397435138984036  0.0000000000000000   T   T   T
  0.9407486082721732  0.6399618539045805 -0.0000000000000000   T   T   T
  0.9392793642899042  0.7478137948499574  0.5000000000000000   T   T   T
  0.9705257070519554  0.6500813675162046  0.5000000000000000   T   T   T
  0.9699885098749437  0.7605093360550548 -0.0000000000000000   T   T   T
  0.9359304026488574  0.8521623501073509  0.0000000000000000   T   T   T
  0.9310423297709607  0.9574692961232303  0.5000000000000000   T   T   T
  0.9683705538293078  0.8675033139445349  0.5000000000000000   T   T   T
  0.9616664317914020  0.9678705467207275  0.0000000000000000   T   T   T
  0.9535216871304736  0.0781372669537784  0.5000000000000000   T   T   T
  0.9801578316654008  0.0943659066021712  0.0000000000000000   T   T   T
 -0.0000772020127393  0.2185722601282541 -0.0000000000000000   T   T   T
 -0.0000365269570604  0.3242977298540347  0.5000000000000000   T   T   T
  0.0000660189067548  0.5429184227024049  0.5000000000000000   T   T   T
  0.0001652156540805  0.7667973050658485  0.5000000000000000   T   T   T
  0.9956341737644465  0.9946598884584632  0.5000000000000000   T   T   T
  0.4746080607782190  0.0149332867534875  0.5000000000000000   T   T   T
  0.4801578316654008  0.1251462884978236  0.0000000000000000   T   T   T
  0.4956341737644466  0.2248523066415388  0.5000000000000000   T   T   T
  0.5001652156540801  0.4527148900341464  0.5000000000000000   T   T   T
  0.5000660189067546  0.6765937723975970  0.5000000000000000   T   T   T
  0.4999634730429396  0.8952144652459673  0.5000000000000000   T   T   T
  0.4476211250968087  0.0262097522401175  0.0000000000000000   T   T   T
  0.4535216871304734  0.1413749282462181  0.5000000000000000   T   T   T
  0.4204625745327503  0.0395240459681330  0.5000000000000000   T   T   T
  0.4252947912017570  0.1518331180945082 -0.0000000000000000   T   T   T
  0.4616664317914020  0.2516416483792745  0.0000000000000000   T   T   T
  0.4683705538293078  0.3520088811554666  0.5000000000000000   T   T   T
  0.4310423297709606  0.2620428989767645  0.5000000000000000   T   T   T
  0.4359304026488575  0.3673498449926506 -0.0000000000000000   T   T   T
  0.4699885098749438  0.4590028590449401 -0.0000000000000000   T   T   T
  0.4705257070519555  0.5694308275837973  0.5000000000000000   T   T   T
  0.4392793642899039  0.4716984002500439  0.5000000000000000   T   T   T
  0.4407486082721732  0.5795503412954160 -0.0000000000000000   T   T   T
  0.4709317533219390  0.6797686813016001  0.0000000000000000   T   T   T
  0.4712657610289960  0.7900140374678670  0.5000000000000000   T   T   T
  0.4417548759625183  0.6889981583179903  0.5000000000000000   T   T   T
  0.4427290799184350  0.7996422086510450 -0.0000000000000000   T   T   T
  0.4717455519733141  0.8994826113258545  0.0000000000000000   T   T   T
  0.4445706145136781  0.9134117481407052  0.5000000000000000   T   T   T
  0.3926574818677865  0.0513268846898675  0.0000000000000000   T   T   T
  0.3969022607186111  0.1627108939961871  0.5000000000000000   T   T   T
  0.3644647772929293  0.0632190592250213  0.5000000000000000   T   T   T
  0.3682607597241873  0.1738523865111096  0.0000000000000000   T   T   T
  0.4014034897394064  0.2722430399870368 -0.0000000000000000   T   T   T
  0.4054672658394074  0.3795807825222608  0.5000000000000000   T   T   T
  0.3721939302538723  0.2831499090944893  0.5000000000000000   T   T   T
  0.3757982604982156  0.3911435567500136  0.0000000000000000   T   T   T
  0.4087363578398047  0.4856610581596491 -0.0000000000000000   T   T   T
  0.4110512824697296  0.5924338017894581  0.5000000000000000   T   T   T
  0.3789708574552408  0.4984745677355760  0.5000000000000000   T   T   T
  0.3816005829868538  0.6062614863467483 -0.0000000000000000   T   T   T
  0.4127540968191607  0.7014196398038417  0.0000000000000000   T   T   T
  0.4146148326403351  0.8129118137933919  0.5000000000000000   T   T   T
  0.3839822986249256  0.7154892136506270  0.5000000000000000   T   T   T
  0.3864292373481243  0.8265166250976911  0.0000000000000000   T   T   T
  0.4169955247691740  0.9259143215266004 -0.0000000000000000   T   T   T
  0.3892239209791265  0.9391093086701272  0.5000000000000000   T   T   T
  0.3360029124721687  0.0747664714600986 -0.0000000000000000   T   T   T
  0.3395331616689349  0.1850758846708810  0.5000000000000000   T   T   T
  0.3074031757445579  0.0863106986289376  0.5000000000000000   T   T   T
  0.3107717009161283  0.1965373406922372 -0.0000000000000000   T   T   T
  0.3430777836612972  0.2945480345410275  0.0000000000000000   T   T   T
  0.3464556855848361  0.4029695963201216  0.5000000000000000   T   T   T
  0.3141055372612879  0.3060283068008540  0.5000000000000000   T   T   T
  0.3173431088197887  0.4149063194587360 -0.0000000000000000   T   T   T
  0.3496054538682141  0.5110459507759127 -0.0000000000000000   T   T   T
  0.3524714726711318  0.6195088545678370  0.5000000000000000   T   T   T
  0.3204841618540725  0.5236028546627242  0.5000000000000000   T   T   T
  0.3235311170016331  0.6327074956947190 -0.0000000000000000   T   T   T
  0.3552393884476464  0.7290047383400690  0.0000000000000000   T   T   T
  0.3580625943376622  0.8399243419305729  0.5000000000000000   T   T   T
  0.3265582666740138  0.7424648622166936  0.5000000000000000   T   T   T
  0.3295942061583845  0.8529674051070628 -0.0000000000000000   T   T   T
  0.3610956163557019  0.9515597395711228  0.0000000000000000   T   T   T
  0.3327237444383633  0.9638566528997479  0.5000000000000000   T   T   T
  0.2787020899296219  0.0980410227285176  0.0000000000000000   T   T   T
  0.2819549818429621  0.2080694086813694  0.5000000000000000   T   T   T
  0.2499509029284079  0.1098343917066327  0.5000000000000000   T   T   T
  0.2531506518543564  0.2197336816505120  0.0000000000000000   T   T   T
  0.2851917152771530  0.3177092416852126 -0.0000000000000000   T   T   T
  0.2883942009359725  0.4270788840928685  0.5000000000000000   T   T   T
  0.2563609677835022  0.3295534479620474  0.5000000000000000   T   T   T
  0.2595721130292549  0.4392444493815963  0.0000000000000000   T   T   T
  0.2915711945320436  0.5363289052757302 -0.0000000000000000   T   T   T
  0.2947150883366073  0.6456458239948185  0.5000000000000000   T   T   T
  0.2627941061560816  0.5487708442314795  0.5000000000000000   T   T   T
  0.2659485170154358  0.6581788603843279 -0.0000000000000000   T   T   T
  0.2978338237544671  0.7553824942307654  0.0000000000000000   T   T   T
  0.3009941474439984  0.8655054774338470  0.5000000000000000   T   T   T
  0.2691210799375604  0.7679015647227367  0.5000000000000000   T   T   T
  0.2723156710911070  0.8777924196898794  0.0000000000000000   T   T   T
  0.3041758059507240  0.9758565468991389 -0.0000000000000000   T   T   T
  0.2755001579908600  0.9878905261285189  0.5000000000000000   T   T   T
  0.2211949776699412  0.1215632533006545  0.0000000000000000   T   T   T
  0.2244221535802364  0.2317099721160052  0.5000000000000000   T   T   T
  0.1925178568240136  0.1333560238208739  0.5000000000000000   T   T   T
  0.1957444361375429  0.2437623733258555 -0.0000000000000000   T   T   T
  0.2276157021771711  0.3417538101370505  0.0000000000000000   T   T   T
  0.2308084272429885  0.4516095839995292  0.5000000000000000   T   T   T
  0.1988882135892462  0.3540261769501617  0.5000000000000000   T   T   T
  0.2020421611681364  0.4641390793033714 -0.0000000000000000   T   T   T
  0.2339870204118239  0.5612261773812082  0.0000000000000000   T   T   T
  0.2371479499028149  0.6706497990646292  0.5000000000000000   T   T   T
  0.2051811891241751  0.5738214534111922  0.5000000000000000   T   T   T
  0.2083039178723186  0.6831513192750019  0.0000000000000000   T   T   T
  0.2403412847746945  0.7801887214145329 -0.0000000000000000   T   T   T
  0.2435339704496642  0.8900274026634067  0.5000000000000000   T   T   T
  0.2114631494699681  0.7923524780338557  0.5000000000000000   T   T   T
  0.2147046628019085  0.9018158842398529 -0.0000000000000000   T   T   T
  0.2467382535119445 -0.0001672548837100 -0.0000000000000000   T   T   T
  0.2179488258787537  0.0115629109432893  0.5000000000000000   T   T   T
  0.1891833129459687  0.0232062358078649  0.0000000000000000   T   T   T
  0.1638525211483075  0.1451513122687520 -0.0000000000000000   T   T   T
  0.1671271565928353  0.2557991528680309  0.5000000000000000   T   T   T
  0.1352863583797297  0.1567171443293193  0.5000000000000000   T   T   T
  0.1386017537356728  0.2679757831599794  0.0000000000000000   T   T   T
  0.1702292268328256  0.3665700340468853  0.0000000000000000   T   T   T
  0.1732774852722665  0.4769079759976143  0.5000000000000000   T   T   T
  0.1416461176780947  0.3792581438713520  0.5000000000000000   T   T   T
  0.1445466273303024  0.4897975328775775 -0.0000000000000000   T   T   T
  0.1763563739508646  0.5865141251494909 -0.0000000000000000   T   T   T
  0.1794259819522820  0.6956245822316756  0.5000000000000000   T   T   T
  0.1474301883692750  0.5993838308906639  0.5000000000000000   T   T   T
  0.1504157796397772  0.7082565181183291 -0.0000000000000000   T   T   T
  0.1826153632675874  0.8044455049510426  0.0000000000000000   T   T   T
  0.1858420605479427  0.9135919707008852  0.5000000000000000   T   T   T
  0.1535921019482082  0.8167295443613629  0.5000000000000000   T   T   T
  0.1569678838854384  0.9254076454623013  0.0000000000000000   T   T   T
  0.1603842649086027  0.0348527045181993  0.5000000000000000   T   T   T
  0.1316650902543895  0.0462377305691290  0.0000000000000000   T   T   T
  0.1069522181262645  0.1678976254147158  0.0000000000000000   T   T   T
  0.1103566975961150  0.2797724747444861  0.5000000000000000   T   T   T
  0.0789372924394233  0.1787963891956788  0.5000000000000000   T   T   T
  0.0824399765400760  0.2920752134584689 -0.0000000000000000   T   T   T
  0.1132322254141916  0.3919967834682591  0.0000000000000000   T   T   T
  0.1158249243604022  0.5031863647012691  0.5000000000000000   T   T   T
  0.0850896771743235  0.4052347430007476  0.5000000000000000   T   T   T
  0.0872003050388416  0.5172853434227368 -0.0000000000000000   T   T   T
  0.1183918053660718  0.6127757743365962 -0.0000000000000000   T   T   T
  0.1211582868820501  0.7208670861089068  0.5000000000000000   T   T   T
  0.0890648276566926  0.6267100216565178  0.5000000000000000   T   T   T
  0.0915010341380565  0.7336587315842313  0.0000000000000000   T   T   T
  0.1244013525691111  0.8286108093216767 -0.0000000000000000   T   T   T
  0.1278866789718083  0.9368503568855380  0.5000000000000000   T   T   T
  0.0947740269741739  0.8399707371372364  0.5000000000000000   T   T   T
  0.0988037124009418  0.9473740001518678 -0.0000000000000000   T   T   T
  0.1029234847417535  0.0567558572716353  0.5000000000000000   T   T   T
  0.0744048984093848  0.0668305487008288 -0.0000000000000000   T   T   T
  0.0515425591080031  0.1907103289770197 -0.0000000000000000   T   T   T
  0.0549068488017160  0.3041994109528521  0.5000000000000000   T   T   T
  0.0246843995786450  0.2010021974313219  0.5000000000000000   T   T   T
  0.0280029095020183  0.3190613974720661  0.0000000000000000   T   T   T
  0.0571606514063209  0.4187722132299916 -0.0000000000000000   T   T   T
  0.0582621472050222  0.5297569477368770  0.5000000000000000   T   T   T
  0.0286934787342848  0.4287172275115185  0.5000000000000000   T   T   T
  0.0291887175522412  0.5390554953263411 -0.0000000000000000   T   T   T
  0.0594736631223541  0.6393246292884989  0.0000000000000000   T   T   T
  0.0609796792584848  0.7474473974589677  0.5000000000000000   T   T   T
  0.0296996165617014  0.6491370620172624  0.5000000000000000   T   T   T
  0.0305032825776547  0.7593624212383641  0.0000000000000000   T   T   T
  0.0645332651299464  0.8513777037262233  0.0000000000000000   T   T   T
  0.0689605899992801  0.9570723020274126  0.5000000000000000   T   T   T
  0.0316432209083970  0.8676562916123681  0.5000000000000000   T   T   T
  0.0388012242980876  0.9666948549401798 -0.0000000000000000   T   T   T
  0.0456384640126410  0.0759727732392100  0.5000000000000000   T   T   T
  0.0180690345960239  0.0878946567021850 -0.0000000000000000   T   T   T
 -0.0000397549459102  0.4331355436277153 -0.0000000000000000   T   T   T
  0.0001201300844278  0.6542548537450199 -0.0000000000000000   T   T   T
  0.0006761516791636  0.8827110467472685 -0.0000000000000000   T   T   T
 
  0.00000000E+00  0.00000000E+00  0.00000000E+00
  0.00000000E+00  0.00000000E+00  0.00000000E+00
  0.00000000E+00  0.00000000E+00  0.00000000E+00
  0.00000000E+00  0.00000000E+00  0.00000000E+00
  0.00000000E+00  0.00000000E+00  0.00000000E+00
  0.00000000E+00  0.00000000E+00  0.00000000E+00
  0.00000000E+00  0.00000000E+00  0.00000000E+00
  0.00000000E+00  0.00000000E+00  0.00000000E+00
  0.00000000E+00  0.00000000E+00  0.00000000E+00
  0.00000000E+00  0.00000000E+00  0.00000000E+00
  0.00000000E+00  0.00000000E+00  0.00000000E+00
  0.00000000E+00  0.00000000E+00  0.00000000E+00
  0.00000000E+00  0.00000000E+00  0.00000000E+00
  0.00000000E+00  0.00000000E+00  0.00000000E+00
  0.00000000E+00  0.00000000E+00  0.00000000E+00
  0.00000000E+00  0.00000000E+00  0.00000000E+00
  0.00000000E+00  0.00000000E+00  0.00000000E+00
  0.00000000E+00  0.00000000E+00  0.00000000E+00
  0.00000000E+00  0.00000000E+00  0.00000000E+00
  0.00000000E+00  0.00000000E+00  0.00000000E+00
  0.00000000E+00  0.00000000E+00  0.00000000E+00
  0.00000000E+00  0.00000000E+00  0.00000000E+00
  0.00000000E+00  0.00000000E+00  0.00000000E+00
  0.00000000E+00  0.00000000E+00  0.00000000E+00
  0.00000000E+00  0.00000000E+00  0.00000000E+00
  0.00000000E+00  0.00000000E+00  0.00000000E+00
  0.00000000E+00  0.00000000E+00  0.00000000E+00
  0.00000000E+00  0.00000000E+00  0.00000000E+00
  0.00000000E+00  0.00000000E+00  0.00000000E+00
  0.00000000E+00  0.00000000E+00  0.00000000E+00
  0.00000000E+00  0.00000000E+00  0.00000000E+00
  0.00000000E+00  0.00000000E+00  0.00000000E+00
  0.00000000E+00  0.00000000E+00  0.00000000E+00
  0.00000000E+00  0.00000000E+00  0.00000000E+00
  0.00000000E+00  0.00000000E+00  0.00000000E+00
  0.00000000E+00  0.00000000E+00  0.00000000E+00
  0.00000000E+00  0.00000000E+00  0.00000000E+00
  0.00000000E+00  0.00000000E+00  0.00000000E+00
  0.00000000E+00  0.00000000E+00  0.00000000E+00
  0.00000000E+00  0.00000000E+00  0.00000000E+00
  0.00000000E+00  0.00000000E+00  0.00000000E+00
  0.00000000E+00  0.00000000E+00  0.00000000E+00
  0.00000000E+00  0.00000000E+00  0.00000000E+00
  0.00000000E+00  0.00000000E+00  0.00000000E+00
  0.00000000E+00  0.00000000E+00  0.00000000E+00
  0.00000000E+00  0.00000000E+00  0.00000000E+00
  0.00000000E+00  0.00000000E+00  0.00000000E+00
  0.00000000E+00  0.00000000E+00  0.00000000E+00
  0.00000000E+00  0.00000000E+00  0.00000000E+00
  0.00000000E+00  0.00000000E+00  0.00000000E+00
  0.00000000E+00  0.00000000E+00  0.00000000E+00
  0.00000000E+00  0.00000000E+00  0.00000000E+00
  0.00000000E+00  0.00000000E+00  0.00000000E+00
  0.00000000E+00  0.00000000E+00  0.00000000E+00
  0.00000000E+00  0.00000000E+00  0.00000000E+00
  0.00000000E+00  0.00000000E+00  0.00000000E+00
  0.00000000E+00  0.00000000E+00  0.00000000E+00
  0.00000000E+00  0.00000000E+00  0.00000000E+00
  0.00000000E+00  0.00000000E+00  0.00000000E+00
  0.00000000E+00  0.00000000E+00  0.00000000E+00
  0.00000000E+00  0.00000000E+00  0.00000000E+00
  0.00000000E+00  0.00000000E+00  0.00000000E+00
  0.00000000E+00  0.00000000E+00  0.00000000E+00
  0.00000000E+00  0.00000000E+00  0.00000000E+00
  0.00000000E+00  0.00000000E+00  0.00000000E+00
  0.00000000E+00  0.00000000E+00  0.00000000E+00
  0.00000000E+00  0.00000000E+00  0.00000000E+00
  0.00000000E+00  0.00000000E+00  0.00000000E+00
  0.00000000E+00  0.00000000E+00  0.00000000E+00
  0.00000000E+00  0.00000000E+00  0.00000000E+00
  0.00000000E+00  0.00000000E+00  0.00000000E+00
  0.00000000E+00  0.00000000E+00  0.00000000E+00
  0.00000000E+00  0.00000000E+00  0.00000000E+00
  0.00000000E+00  0.00000000E+00  0.00000000E+00
  0.00000000E+00  0.00000000E+00  0.00000000E+00
  0.00000000E+00  0.00000000E+00  0.00000000E+00
  0.00000000E+00  0.00000000E+00  0.00000000E+00
  0.00000000E+00  0.00000000E+00  0.00000000E+00
  0.00000000E+00  0.00000000E+00  0.00000000E+00
  0.00000000E+00  0.00000000E+00  0.00000000E+00
  0.00000000E+00  0.00000000E+00  0.00000000E+00
  0.00000000E+00  0.00000000E+00  0.00000000E+00
  0.00000000E+00  0.00000000E+00  0.00000000E+00
  0.00000000E+00  0.00000000E+00  0.00000000E+00
  0.00000000E+00  0.00000000E+00  0.00000000E+00
  0.00000000E+00  0.00000000E+00  0.00000000E+00
  0.00000000E+00  0.00000000E+00  0.00000000E+00
  0.00000000E+00  0.00000000E+00  0.00000000E+00
  0.00000000E+00  0.00000000E+00  0.00000000E+00
  0.00000000E+00  0.00000000E+00  0.00000000E+00
  0.00000000E+00  0.00000000E+00  0.00000000E+00
  0.00000000E+00  0.00000000E+00  0.00000000E+00
  0.00000000E+00  0.00000000E+00  0.00000000E+00
  0.00000000E+00  0.00000000E+00  0.00000000E+00
  0.00000000E+00  0.00000000E+00  0.00000000E+00
  0.00000000E+00  0.00000000E+00  0.00000000E+00
  0.00000000E+00  0.00000000E+00  0.00000000E+00
  0.00000000E+00  0.00000000E+00  0.00000000E+00
  0.00000000E+00  0.00000000E+00  0.00000000E+00
  0.00000000E+00  0.00000000E+00  0.00000000E+00
  0.00000000E+00  0.00000000E+00  0.00000000E+00
  0.00000000E+00  0.00000000E+00  0.00000000E+00
  0.00000000E+00  0.00000000E+00  0.00000000E+00
  0.00000000E+00  0.00000000E+00  0.00000000E+00
  0.00000000E+00  0.00000000E+00  0.00000000E+00
  0.00000000E+00  0.00000000E+00  0.00000000E+00
  0.00000000E+00  0.00000000E+00  0.00000000E+00
  0.00000000E+00  0.00000000E+00  0.00000000E+00
  0.00000000E+00  0.00000000E+00  0.00000000E+00
  0.00000000E+00  0.00000000E+00  0.00000000E+00
  0.00000000E+00  0.00000000E+00  0.00000000E+00
  0.00000000E+00  0.00000000E+00  0.00000000E+00
  0.00000000E+00  0.00000000E+00  0.00000000E+00
  0.00000000E+00  0.00000000E+00  0.00000000E+00
  0.00000000E+00  0.00000000E+00  0.00000000E+00
  0.00000000E+00  0.00000000E+00  0.00000000E+00
  0.00000000E+00  0.00000000E+00  0.00000000E+00
  0.00000000E+00  0.00000000E+00  0.00000000E+00
  0.00000000E+00  0.00000000E+00  0.00000000E+00
  0.00000000E+00  0.00000000E+00  0.00000000E+00
  0.00000000E+00  0.00000000E+00  0.00000000E+00
  0.00000000E+00  0.00000000E+00  0.00000000E+00
  0.00000000E+00  0.00000000E+00  0.00000000E+00
  0.00000000E+00  0.00000000E+00  0.00000000E+00
  0.00000000E+00  0.00000000E+00  0.00000000E+00
  0.00000000E+00  0.00000000E+00  0.00000000E+00
  0.00000000E+00  0.00000000E+00  0.00000000E+00
  0.00000000E+00  0.00000000E+00  0.00000000E+00
  0.00000000E+00  0.00000000E+00  0.00000000E+00
  0.00000000E+00  0.00000000E+00  0.00000000E+00
  0.00000000E+00  0.00000000E+00  0.00000000E+00
  0.00000000E+00  0.00000000E+00  0.00000000E+00
  0.00000000E+00  0.00000000E+00  0.00000000E+00
  0.00000000E+00  0.00000000E+00  0.00000000E+00
  0.00000000E+00  0.00000000E+00  0.00000000E+00
  0.00000000E+00  0.00000000E+00  0.00000000E+00
  0.00000000E+00  0.00000000E+00  0.00000000E+00
  0.00000000E+00  0.00000000E+00  0.00000000E+00
  0.00000000E+00  0.00000000E+00  0.00000000E+00
  0.00000000E+00  0.00000000E+00  0.00000000E+00
  0.00000000E+00  0.00000000E+00  0.00000000E+00
  0.00000000E+00  0.00000000E+00  0.00000000E+00
  0.00000000E+00  0.00000000E+00  0.00000000E+00
  0.00000000E+00  0.00000000E+00  0.00000000E+00