(Al) Source:.POSCAR_0;Expand:3,3,1;Shaped;Rotate:1/5,22.62[degrees];Mirrorred;Shaped2;Cut:0.81715-0.84984
   1.0000000000
  19.8145937137    0.0000000000    0.0000000000
   0.0000000000   10.3035887311    0.0000000000
   0.0000000000    0.0000000000    4.0414000000
  44
Selective dynamics
Direct
   0.6000000000    0.0384615385    0.5000000000 T T T
   0.5800000000    0.2307692308    0.0000000000 T T T
   1.0000000000    0.1923076923    0.5000000000 T T T
   0.7000000000    0.0769230769    0.0000000000 T T T
   0.6800000000    0.2692307692    0.5000000000 T T T
   0.8000000000    0.1153846154    0.5000000000 T T T
   0.7800000000    0.3076923077    0.0000000000 T T T
   0.6600000000    0.4615384615    0.0000000000 T T T
   0.6400000000    0.6538461538    0.5000000000 T T T
   0.7600000000    0.5000000000    0.5000000000 T T T
   0.7400000000    0.6923076923    0.0000000000 T T T
   0.6200000000    0.8461538462    0.0000000000 T T T
   0.7200000000    0.8846153846    0.5000000000 T T T
   0.9000000000    0.1538461538    0.0000000000 T T T
   0.8800000000    0.3461538462    0.5000000000 T T T
   0.9800000000    0.3846153846    0.0000000000 T T T
   0.8600000000    0.5384615385    0.0000000000 T T T
   0.8400000000    0.7307692308    0.5000000000 T T T
   0.9600000000    0.5769230769    0.5000000000 T T T
   0.9400000000    0.7692307692    0.0000000000 T T T
   0.8200000000    0.9230769231    0.0000000000 T T T
   0.9200000000    0.9615384615    0.5000000000 T T T
   0.5000000000    0.0000000000    0.0000000000 T T T
   0.4000000000    0.0384615385    0.5000000000 T T T
   0.4200000000    0.2307692308    0.0000000000 T T T
   0.4400000000    0.4230769231    0.5000000000 T T T
   0.4600000000    0.6153846154    0.0000000000 T T T
   0.4800000000    0.8076923077    0.5000000000 T T T
   0.3000000000    0.0769230769    0.0000000000 T T T
   0.3200000000    0.2692307692    0.5000000000 T T T
   0.2000000000    0.1153846154    0.5000000000 T T T
   0.2200000000    0.3076923077    0.0000000000 T T T
   0.3400000000    0.4615384615    0.0000000000 T T T
   0.3600000000    0.6538461538    0.5000000000 T T T
   0.2400000000    0.5000000000    0.5000000000 T T T
   0.2600000000    0.6923076923    0.0000000000 T T T
   0.3800000000    0.8461538462    0.0000000000 T T T
   0.2800000000    0.8846153846    0.5000000000 T T T
   0.1000000000    0.1538461538    0.0000000000 T T T
   0.1200000000    0.3461538462    0.5000000000 T T T
   0.1400000000    0.5384615385    0.0000000000 T T T
   0.1600000000    0.7307692308    0.5000000000 T T T
   0.1800000000    0.9230769231    0.0000000000 T T T
   0.0800000000    0.9615384615    0.5000000000 T T T
