(Al) Source:POSCAR_0;Expand:5,5,1;Shaped
   1.00000000000000     
    34.7041301066880052    0.0000000000000000    0.0000000000000000
     0.0000000000000000   18.2982167486000016    0.0000000000000000
     0.0000000000000000    0.0000000000000000    4.0414000000000003
 152
Selective dynamics
Direct
  0.4998598249652311  0.0040783406982165  0.0000000000000000   T   T   T
  0.5562703054564437  0.0096606837064546  0.5000000000000000   T   T   T
  0.5499169725003705  0.1280497180929742  0.0000000000000000   T   T   T
  0.5362986977052104  0.2424910285293794  0.5000000000000000   T   T   T
  0.5018527942086580  0.4461332502260508  0.5000000000000000   T   T   T
  0.5002860689603634  0.6735438352636504  0.5000000000000000   T   T   T
  0.4999429210362061  0.8949401054429392  0.5000000000000000   T   T   T
  0.6105323489603713  0.0246399912793087  0.0000000000000000   T   T   T
  0.6037806917209222  0.1386744195296822  0.5000000000000000   T   T   T
  0.6658391649880068  0.0367980160974306  0.5000000000000000   T   T   T
  0.6589621730244661  0.1510763280910286  0.0000000000000000   T   T   T
  0.5922057604298905  0.2534859846199989  0.0000000000000000   T   T   T
  0.5792908903558159  0.3628082038430795  0.5000000000000000   T   T   T
  0.6501965404485404  0.2634437508955594  0.5000000000000000   T   T   T
  0.6398446988186142  0.3730662594487925  0.0000000000000000   T   T   T
  0.5645036312554372  0.4617655604701714  0.0000000000000000   T   T   T
  0.5621066704343993  0.5691441902009350  0.5000000000000000   T   T   T
  0.6313887072835562  0.4785383987169861  0.5000000000000000   T   T   T
  0.6238529598746571  0.5818494519989227  0.0000000000000000   T   T   T
  0.5602010305554609  0.6791081994502520  0.0000000000000000   T   T   T
  0.5590544806827418  0.7890177119739950  0.5000000000000000   T   T   T
  0.6206276598243687  0.6893159137768132  0.5000000000000000   T   T   T
  0.6179202672888677  0.7986998967287218  0.0000000000000000   T   T   T
  0.5578027433258680  0.8995902720414983  0.0000000000000000   T   T   T
  0.6151470529633799  0.9097100373753508  0.5000000000000000   T   T   T
  0.7215194367869626  0.0495292519600749  0.0000000000000000   T   T   T
  0.7149243507820555  0.1630652186401670  0.5000000000000000   T   T   T
  0.7772472391798342  0.0617365759575245  0.5000000000000000   T   T   T
  0.7712560139476843  0.1754926036533565  0.0000000000000000   T   T   T
  0.7074820004367507  0.2749250982801800  0.0000000000000000   T   T   T
  0.7003503006194378  0.3839036705412209  0.5000000000000000   T   T   T
  0.7654519733988875  0.2869918110166304  0.5000000000000000   T   T   T
  0.7595380727414083  0.3958884692364020  0.0000000000000000   T   T   T
  0.6927403583134466  0.4904476617911212  0.0000000000000000   T   T   T
  0.6862912968525970  0.5955573630177907  0.5000000000000000   T   T   T
  0.7536665526080721  0.5023791710931456  0.5000000000000000   T   T   T
  0.7470798350007518  0.6079526193515006  0.0000000000000000   T   T   T
  0.6808605861282939  0.7016502550836664  0.0000000000000000   T   T   T
  0.6764116144504378  0.8108338397616017  0.5000000000000000   T   T   T
  0.7407509995571848  0.7147136339653636  0.5000000000000000   T   T   T
  0.7341966294542133  0.8237490732623415  0.0000000000000000   T   T   T
  0.6714203278985477  0.9228842060900899  0.0000000000000000   T   T   T
  0.7278595000713850  0.9356012934694151  0.5000000000000000   T   T   T
  0.8329137621079874  0.0748536554158087  0.0000000000000000   T   T   T
  0.8278212549159220  0.1884080088024384  0.5000000000000000   T   T   T
  0.8883762736769863  0.0873294907103304  0.5000000000000000   T   T   T
  0.8844641651543216  0.2014049692986564  0.0000000000000000   T   T   T
  0.8233891933470430  0.3000438405338506  0.0000000000000000   T   T   T
  0.8195159910155554  0.4088446487688649  0.5000000000000000   T   T   T
  0.8821977049950693  0.3120985878052196  0.5000000000000000   T   T   T
  0.8797744053547363  0.4213181625773261  0.0000000000000000   T   T   T
  0.8144251479758192  0.5150281564300395  0.0000000000000000   T   T   T
  0.8078899974555813  0.6201415768789152  0.5000000000000000   T   T   T
  0.8767155925247203  0.5289988633336679  0.5000000000000000   T   T   T
  0.8697799394232268  0.6327451498353165  0.0000000000000000   T   T   T
  0.7999703713985411  0.7267555544178210  0.0000000000000000   T   T   T
  0.7918942974045058  0.8361125940512338  0.5000000000000000   T   T   T
  0.8599648153268640  0.7379231946340911  0.5000000000000000   T   T   T
  0.8490078001553202  0.8478334974036076  0.0000000000000000   T   T   T
  0.7839674086483540  0.9481507175526239  0.0000000000000000   T   T   T
  0.8397509855513812  0.9604326455640982  0.5000000000000000   T   T   T
  0.9431700230311444  0.1012115553121830  0.0000000000000000   T   T   T
  0.9420715529543664  0.2110946629990801  0.5000000000000000   T   T   T
  0.9412345827216398  0.3215637097493359  0.0000000000000000   T   T   T
  0.9403368107245351  0.4316488921544418  0.5000000000000000   T   T   T
  0.0001277366791195  0.3246637057364375  0.5000000000000000   T   T   T
  0.9390951150377076  0.5420262475896476  0.0000000000000000   T   T   T
  0.9361286566838010  0.6485419500231814  0.5000000000000000   T   T   T
  0.0004632746409921  0.5483467575710921  0.5000000000000000   T   T   T
  0.9216701297642281  0.7485303963425414  0.0000000000000000   T   T   T
  0.9060386829135064  0.8587612418689902  0.5000000000000000   T   T   T
  0.9905069607454455  0.7748241375626981  0.5000000000000000   T   T   T
  0.9599144739482098  0.8745583345072889  0.0000000000000000   T   T   T
  0.8944245878566162  0.9738654607490880  0.0000000000000000   T   T   T
  0.9487111559685303  0.9854176708871957  0.5000000000000000   T   T   T
  0.4431838097151178  0.0086214062123540  0.5000000000000000   T   T   T
  0.4487090629991602  0.1243378218155507  0.0000000000000000   T   T   T
  0.4598877884006276  0.2351878380429847  0.5000000000000000   T   T   T
  0.4904812932570393  0.3348823762334367  0.0000000000000000   T   T   T
  0.5004122817034673  0.5612899688042732  0.0000000000000000   T   T   T
  0.5001457021158763  0.7849706045453162  0.0000000000000000   T   T   T
 -0.0001251732118956  0.1056655842344942  0.5000000000000000   T   T   T
  0.3883695534137653  0.0224609003077122  0.0000000000000000   T   T   T
  0.3944045223583857  0.1359222218640654  0.5000000000000000   T   T   T
  0.3328896827030018  0.0350027364358030  0.5000000000000000   T   T   T
  0.3397221181840778  0.1493933462724321  0.0000000000000000   T   T   T
  0.4060082268976519  0.2509864435360628  0.0000000000000000   T   T   T
  0.4216316563267498  0.3611564717189855  0.5000000000000000   T   T   T
  0.3489296986846649  0.2619141463643081  0.5000000000000000   T   T   T
  0.3599606016553546  0.3718868856052089  0.0000000000000000   T   T   T
  0.4361033701406667  0.4611239663933034  0.0000000000000000   T   T   T
  0.4390740531023523  0.5676608024207762  0.5000000000000000   T   T   T
  0.3697518662329455  0.4770682061247443  0.5000000000000000   T   T   T
  0.3766623649084379  0.5808263732790155  0.0000000000000000   T   T   T
  0.4402867514243685  0.6781118682320558  0.0000000000000000   T   T   T
  0.4412144963737207  0.7882023335765743  0.5000000000000000   T   T   T
  0.3797366007779392  0.6884929604909230  0.5000000000000000   T   T   T
  0.3821781800186595  0.7977413079168276  0.0000000000000000   T   T   T
  0.4420862377415757  0.8986458826854454  0.0000000000000000   T   T   T
  0.3844463680726451  0.9084250435910388  0.5000000000000000   T   T   T
  0.2772455591395241  0.0481116578017515  0.0000000000000000   T   T   T
  0.2838910521409689  0.1616902407922477  0.5000000000000000   T   T   T
  0.2214917141449281  0.0602185994734102  0.5000000000000000   T   T   T
  0.2277956443214659  0.1741636796063654  0.0000000000000000   T   T   T
  0.2918325868936564  0.2736783463099261  0.0000000000000000   T   T   T
  0.2999253215405966  0.3830738378524418  0.5000000000000000   T   T   T
  0.2341635000192815  0.2861277791004311  0.5000000000000000   T   T   T
  0.2407288372642417  0.3951491518123401  0.0000000000000000   T   T   T
  0.3078733896919124  0.4896744270822934  0.0000000000000000   T   T   T
  0.3143586508421993  0.5947632320800528  0.5000000000000000   T   T   T
  0.2470138399904338  0.5018661180332280  0.5000000000000000   T   T   T
  0.2536218510975867  0.6074568865888090  0.0000000000000000   T   T   T
  0.3194568750432063  0.7009972933082707  0.0000000000000000   T   T   T
  0.3233806479813791  0.8098086752160598  0.5000000000000000   T   T   T
  0.2595128392032127  0.7139470085745326  0.5000000000000000   T   T   T
  0.2654427936195520  0.8228645866059598  0.0000000000000000   T   T   T
  0.3278155705992373  0.9214006695785653  0.0000000000000000   T   T   T
  0.2712528994234861  0.9343790554544327  0.5000000000000000   T   T   T
  0.1658281243419150  0.0728647369570641  0.0000000000000000   T   T   T
  0.1714243342565359  0.1869628288668502  0.5000000000000000   T   T   T
  0.1105488790979128  0.0851115531475991  0.5000000000000000   T   T   T
  0.1151374336031857  0.2000197701613070  0.0000000000000000   T   T   T
  0.1764100000086780  0.2989578852196006  0.0000000000000000   T   T   T
  0.1807933860410168  0.4081515735259258  0.5000000000000000   T   T   T
  0.1178992699741455  0.3110455684586078  0.5000000000000000   T   T   T
  0.1206078854514139  0.4204371124316704  0.0000000000000000   T   T   T
  0.1862636819586975  0.5142465486266745  0.0000000000000000   T   T   T
  0.1926826189121877  0.6193760667292841  0.5000000000000000   T   T   T
  0.1238344558533996  0.5279487251875880  0.5000000000000000   T   T   T
  0.1313690495871216  0.6313058665609644  0.0000000000000000   T   T   T
  0.2003198448997120  0.7258999689399103  0.0000000000000000   T   T   T
  0.2074739059402528  0.8348426103681260  0.5000000000000000   T   T   T
  0.1398280906203735  0.7367306816551715  0.5000000000000000   T   T   T
  0.1501628868961289  0.8463363442938815  0.0000000000000000   T   T   T
  0.2149273637885283  0.9466804441163870  0.0000000000000000   T   T   T
  0.1589374217702820  0.9586253255243699  0.5000000000000000   T   T   T
  0.0562862868035325  0.1000769637537927  0.0000000000000000   T   T   T
  0.0578056256131923  0.2101521477800474  0.5000000000000000   T   T   T
 -0.0000584548769726  0.2147018574528088  0.0000000000000000   T   T   T
  0.0590198910422798  0.3206690279230697  0.0000000000000000   T   T   T
  0.0602205920073757  0.4305651247343174  0.5000000000000000   T   T   T
  0.0003168044567399  0.4361103475339578  0.0000000000000000   T   T   T
  0.0621257053158114  0.5405299815058260  0.0000000000000000   T   T   T
  0.0645407324535830  0.6479242522221754  0.5000000000000000   T   T   T
  0.0018717172824283  0.6635928259281056  0.0000000000000000   T   T   T
  0.0791925594889921  0.7469452063144729  0.0000000000000000   T   T   T
  0.0921967484453057  0.8562414596408262  0.5000000000000000   T   T   T
  0.0362737353674413  0.8673921717283857  0.0000000000000000   T   T   T
  0.1037750464848609  0.9710721469041422  0.0000000000000000   T   T   T
  0.0499154819600300  0.9817046636346957  0.5000000000000000   T   T   T
 -0.0001856439527338 -0.0007812976389143  0.0000000000000000   T   T   T
  0.4998178197558662  0.1106197942996075  0.5000000000000000   T   T   T
 
  0.00000000E+00  0.00000000E+00  0.00000000E+00
  0.00000000E+00  0.00000000E+00  0.00000000E+00
  0.00000000E+00  0.00000000E+00  0.00000000E+00
  0.00000000E+00  0.00000000E+00  0.00000000E+00
  0.00000000E+00  0.00000000E+00  0.00000000E+00
  0.00000000E+00  0.00000000E+00  0.00000000E+00
  0.00000000E+00  0.00000000E+00  0.00000000E+00
  0.00000000E+00  0.00000000E+00  0.00000000E+00
  0.00000000E+00  0.00000000E+00  0.00000000E+00
  0.00000000E+00  0.00000000E+00  0.00000000E+00
  0.00000000E+00  0.00000000E+00  0.00000000E+00
  0.00000000E+00  0.00000000E+00  0.00000000E+00
  0.00000000E+00  0.00000000E+00  0.00000000E+00
  0.00000000E+00  0.00000000E+00  0.00000000E+00
  0.00000000E+00  0.00000000E+00  0.00000000E+00
  0.00000000E+00  0.00000000E+00  0.00000000E+00
  0.00000000E+00  0.00000000E+00  0.00000000E+00
  0.00000000E+00  0.00000000E+00  0.00000000E+00
  0.00000000E+00  0.00000000E+00  0.00000000E+00
  0.00000000E+00  0.00000000E+00  0.00000000E+00
  0.00000000E+00  0.00000000E+00  0.00000000E+00
  0.00000000E+00  0.00000000E+00  0.00000000E+00
  0.00000000E+00  0.00000000E+00  0.00000000E+00
  0.00000000E+00  0.00000000E+00  0.00000000E+00
  0.00000000E+00  0.00000000E+00  0.00000000E+00
  0.00000000E+00  0.00000000E+00  0.00000000E+00
  0.00000000E+00  0.00000000E+00  0.00000000E+00
  0.00000000E+00  0.00000000E+00  0.00000000E+00
  0.00000000E+00  0.00000000E+00  0.00000000E+00
  0.00000000E+00  0.00000000E+00  0.00000000E+00
  0.00000000E+00  0.00000000E+00  0.00000000E+00
  0.00000000E+00  0.00000000E+00  0.00000000E+00
  0.00000000E+00  0.00000000E+00  0.00000000E+00
  0.00000000E+00  0.00000000E+00  0.00000000E+00
  0.00000000E+00  0.00000000E+00  0.00000000E+00
  0.00000000E+00  0.00000000E+00  0.00000000E+00
  0.00000000E+00  0.00000000E+00  0.00000000E+00
  0.00000000E+00  0.00000000E+00  0.00000000E+00
  0.00000000E+00  0.00000000E+00  0.00000000E+00
  0.00000000E+00  0.00000000E+00  0.00000000E+00
  0.00000000E+00  0.00000000E+00  0.00000000E+00
  0.00000000E+00  0.00000000E+00  0.00000000E+00
  0.00000000E+00  0.00000000E+00  0.00000000E+00
  0.00000000E+00  0.00000000E+00  0.00000000E+00
  0.00000000E+00  0.00000000E+00  0.00000000E+00
  0.00000000E+00  0.00000000E+00  0.00000000E+00
  0.00000000E+00  0.00000000E+00  0.00000000E+00
  0.00000000E+00  0.00000000E+00  0.00000000E+00
  0.00000000E+00  0.00000000E+00  0.00000000E+00
  0.00000000E+00  0.00000000E+00  0.00000000E+00
  0.00000000E+00  0.00000000E+00  0.00000000E+00
  0.00000000E+00  0.00000000E+00  0.00000000E+00
  0.00000000E+00  0.00000000E+00  0.00000000E+00
  0.00000000E+00  0.00000000E+00  0.00000000E+00
  0.00000000E+00  0.00000000E+00  0.00000000E+00
  0.00000000E+00  0.00000000E+00  0.00000000E+00
  0.00000000E+00  0.00000000E+00  0.00000000E+00
  0.00000000E+00  0.00000000E+00  0.00000000E+00
  0.00000000E+00  0.00000000E+00  0.00000000E+00
  0.00000000E+00  0.00000000E+00  0.00000000E+00
  0.00000000E+00  0.00000000E+00  0.00000000E+00
  0.00000000E+00  0.00000000E+00  0.00000000E+00
  0.00000000E+00  0.00000000E+00  0.00000000E+00
  0.00000000E+00  0.00000000E+00  0.00000000E+00
  0.00000000E+00  0.00000000E+00  0.00000000E+00
  0.00000000E+00  0.00000000E+00  0.00000000E+00
  0.00000000E+00  0.00000000E+00  0.00000000E+00
  0.00000000E+00  0.00000000E+00  0.00000000E+00
  0.00000000E+00  0.00000000E+00  0.00000000E+00
  0.00000000E+00  0.00000000E+00  0.00000000E+00
  0.00000000E+00  0.00000000E+00  0.00000000E+00
  0.00000000E+00  0.00000000E+00  0.00000000E+00
  0.00000000E+00  0.00000000E+00  0.00000000E+00
  0.00000000E+00  0.00000000E+00  0.00000000E+00
  0.00000000E+00  0.00000000E+00  0.00000000E+00
  0.00000000E+00  0.00000000E+00  0.00000000E+00
  0.00000000E+00  0.00000000E+00  0.00000000E+00
  0.00000000E+00  0.00000000E+00  0.00000000E+00
  0.00000000E+00  0.00000000E+00  0.00000000E+00
  0.00000000E+00  0.00000000E+00  0.00000000E+00
  0.00000000E+00  0.00000000E+00  0.00000000E+00
  0.00000000E+00  0.00000000E+00  0.00000000E+00
  0.00000000E+00  0.00000000E+00  0.00000000E+00
  0.00000000E+00  0.00000000E+00  0.00000000E+00
  0.00000000E+00  0.00000000E+00  0.00000000E+00
  0.00000000E+00  0.00000000E+00  0.00000000E+00
  0.00000000E+00  0.00000000E+00  0.00000000E+00
  0.00000000E+00  0.00000000E+00  0.00000000E+00
  0.00000000E+00  0.00000000E+00  0.00000000E+00
  0.00000000E+00  0.00000000E+00  0.00000000E+00
  0.00000000E+00  0.00000000E+00  0.00000000E+00
  0.00000000E+00  0.00000000E+00  0.00000000E+00
  0.00000000E+00  0.00000000E+00  0.00000000E+00
  0.00000000E+00  0.00000000E+00  0.00000000E+00
  0.00000000E+00  0.00000000E+00  0.00000000E+00
  0.00000000E+00  0.00000000E+00  0.00000000E+00
  0.00000000E+00  0.00000000E+00  0.00000000E+00
  0.00000000E+00  0.00000000E+00  0.00000000E+00
  0.00000000E+00  0.00000000E+00  0.00000000E+00
  0.00000000E+00  0.00000000E+00  0.00000000E+00
  0.00000000E+00  0.00000000E+00  0.00000000E+00
  0.00000000E+00  0.00000000E+00  0.00000000E+00
  0.00000000E+00  0.00000000E+00  0.00000000E+00
  0.00000000E+00  0.00000000E+00  0.00000000E+00
  0.00000000E+00  0.00000000E+00  0.00000000E+00
  0.00000000E+00  0.00000000E+00  0.00000000E+00
  0.00000000E+00  0.00000000E+00  0.00000000E+00
  0.00000000E+00  0.00000000E+00  0.00000000E+00
  0.00000000E+00  0.00000000E+00  0.00000000E+00
  0.00000000E+00  0.00000000E+00  0.00000000E+00
  0.00000000E+00  0.00000000E+00  0.00000000E+00
  0.00000000E+00  0.00000000E+00  0.00000000E+00
  0.00000000E+00  0.00000000E+00  0.00000000E+00
  0.00000000E+00  0.00000000E+00  0.00000000E+00
  0.00000000E+00  0.00000000E+00  0.00000000E+00
  0.00000000E+00  0.00000000E+00  0.00000000E+00
  0.00000000E+00  0.00000000E+00  0.00000000E+00
  0.00000000E+00  0.00000000E+00  0.00000000E+00
  0.00000000E+00  0.00000000E+00  0.00000000E+00
  0.00000000E+00  0.00000000E+00  0.00000000E+00
  0.00000000E+00  0.00000000E+00  0.00000000E+00
  0.00000000E+00  0.00000000E+00  0.00000000E+00
  0.00000000E+00  0.00000000E+00  0.00000000E+00
  0.00000000E+00  0.00000000E+00  0.00000000E+00
  0.00000000E+00  0.00000000E+00  0.00000000E+00
  0.00000000E+00  0.00000000E+00  0.00000000E+00
  0.00000000E+00  0.00000000E+00  0.00000000E+00
  0.00000000E+00  0.00000000E+00  0.00000000E+00
  0.00000000E+00  0.00000000E+00  0.00000000E+00
  0.00000000E+00  0.00000000E+00  0.00000000E+00
  0.00000000E+00  0.00000000E+00  0.00000000E+00
  0.00000000E+00  0.00000000E+00  0.00000000E+00
  0.00000000E+00  0.00000000E+00  0.00000000E+00
  0.00000000E+00  0.00000000E+00  0.00000000E+00
  0.00000000E+00  0.00000000E+00  0.00000000E+00
  0.00000000E+00  0.00000000E+00  0.00000000E+00
  0.00000000E+00  0.00000000E+00  0.00000000E+00
  0.00000000E+00  0.00000000E+00  0.00000000E+00
  0.00000000E+00  0.00000000E+00  0.00000000E+00
  0.00000000E+00  0.00000000E+00  0.00000000E+00
  0.00000000E+00  0.00000000E+00  0.00000000E+00
  0.00000000E+00  0.00000000E+00  0.00000000E+00
  0.00000000E+00  0.00000000E+00  0.00000000E+00
  0.00000000E+00  0.00000000E+00  0.00000000E+00
  0.00000000E+00  0.00000000E+00  0.00000000E+00
  0.00000000E+00  0.00000000E+00  0.00000000E+00
  0.00000000E+00  0.00000000E+00  0.00000000E+00
  0.00000000E+00  0.00000000E+00  0.00000000E+00
  0.00000000E+00  0.00000000E+00  0.00000000E+00
  0.00000000E+00  0.00000000E+00  0.00000000E+00
  0.00000000E+00  0.00000000E+00  0.00000000E+00
  0.00000000E+00  0.00000000E+00  0.00000000E+00
