(Al) 4  (Fm-3m) 
   1.00000000000000     
  4.04140   0.0000000000000000  0.0000000000000000
  0.000000000000000   4.04140  0.0000000000000000
  0.000000000000000   0.0000000000000000  4.04140
   4
Selective Dynamics   
Direct
  0.0000000000000000  0.0000000000000000  0.0000000000000000
  0.0000000000000000  0.5000000000000000  0.5000000000000000
  0.5000000000000000  0.0000000000000000  0.5000000000000000
  0.5000000000000000  0.5000000000000000  0.0000000000000000

