(Al) Source:POSCAR_0;Expand:3,3,1;Shaped
   1.00000000000000     
    19.0220099651519980    0.0000000000000000    0.0000000000000000
     0.0000000000000000   10.4066246184109996    0.0000000000000000
     0.0000000000000000    0.0000000000000000    4.0414000000000003
  46
Selective dynamics
Direct
  0.5005547024382229  0.0136205745105869  0.0000000000000000   T   T   T
  0.6032164567051871  0.0177047708967052  0.5000000000000000   T   T   T
  0.5944114328636401  0.2185773994553507  0.0000000000000000   T   T   T
  0.5053709836681447  0.6154588353670590  0.0000000000000000   T   T   T
  0.0006189430799809  0.1790382424635436  0.5000000000000000   T   T   T
  0.7040453031203971  0.0547369561501434  0.0000000000000000   T   T   T
  0.6842235261288659  0.2620705486402044  0.5000000000000000   T   T   T
  0.8020769574524048  0.1007509982696516  0.5000000000000000   T   T   T
  0.7829313499249543  0.3012806363415084  0.0000000000000000   T   T   T
  0.6458937548522659  0.4576579359849154  0.0000000000000000   T   T   T
  0.6165710799754643  0.6329262853004882  0.5000000000000000   T   T   T
  0.7570134071661075  0.4911037485402618  0.5000000000000000   T   T   T
  0.7346984288829242  0.6733480901166922  0.0000000000000000   T   T   T
  0.6086390890702171  0.8247299000727801  0.0000000000000000   T   T   T
  0.7170520781474248  0.8574974771532874  0.5000000000000000   T   T   T
  0.8997039255372173  0.1469515101927752  0.0000000000000000   T   T   T
  0.8891515794310669  0.3451496220868261  0.5000000000000000   T   T   T
  0.9974909899470000  0.3785778066688001  0.0000000000000000   T   T   T
  0.8697925763727091  0.5250674610115179  0.0000000000000000   T   T   T
  0.8464109168587969  0.7067011343191348  0.5000000000000000   T   T   T
  0.9548112533938129  0.7398983036674366  0.0000000000000000   T   T   T
  0.8207542815261928  0.8989705093089373  0.0000000000000000   T   T   T
  0.9184075049550945  0.9368867774274801  0.5000000000000000   T   T   T
  0.3997781353562520  0.0460827188868344  0.5000000000000000   T   T   T
  0.4184458316346275  0.2557210495996000  0.0000000000000000   T   T   T
  0.4545904285193456  0.4527134577278945  0.5000000000000000   T   T   T
  0.4974688940475259  0.8139725553161662  0.5000000000000000   T   T   T
  0.3019945294438385  0.0920271088081293  0.0000000000000000   T   T   T
  0.3206128618053325  0.2935833142369420  0.5000000000000000   T   T   T
  0.2040383113589912  0.1376780586771531  0.5000000000000000   T   T   T
  0.2168957113927057  0.3351084890323698  0.0000000000000000   T   T   T
  0.3461927220113570  0.4858879932823844  0.0000000000000000   T   T   T
  0.3698197763153050  0.6676114982265640  0.5000000000000000   T   T   T
  0.2346114549304413  0.5193350938295560  0.5000000000000000   T   T   T
  0.2570931670014748  0.7016405815030513  0.0000000000000000   T   T   T
  0.3891351673212812  0.8478551831546070  0.0000000000000000   T   T   T
  0.2829036879636584  0.8913488854344046  0.5000000000000000   T   T   T
  0.1032223814464010  0.1746936122355344  0.0000000000000000   T   T   T
  0.1086872696308736  0.3678591812354975  0.5000000000000000   T   T   T
  0.1163455105669101  0.5598234889626800  0.0000000000000000   T   T   T
  0.1461794201014479  0.7349575060962663  0.5000000000000000   T   T   T
  0.0050399324106534  0.5767657422191983  0.5000000000000000   T   T   T
  0.1842783271670596  0.9306717943276941  0.0000000000000000   T   T   T
  0.0942808105967999  0.9737525343260516  0.5000000000000000   T   T   T
  0.5073038503566392  0.2142039127461926  0.5000000000000000   T   T   T
  0.0072412971229745 -0.0212300530108549  0.0000000000000000   T   T   T
 
  0.00000000E+00  0.00000000E+00  0.00000000E+00
  0.00000000E+00  0.00000000E+00  0.00000000E+00
  0.00000000E+00  0.00000000E+00  0.00000000E+00
  0.00000000E+00  0.00000000E+00  0.00000000E+00
  0.00000000E+00  0.00000000E+00  0.00000000E+00
  0.00000000E+00  0.00000000E+00  0.00000000E+00
  0.00000000E+00  0.00000000E+00  0.00000000E+00
  0.00000000E+00  0.00000000E+00  0.00000000E+00
  0.00000000E+00  0.00000000E+00  0.00000000E+00
  0.00000000E+00  0.00000000E+00  0.00000000E+00
  0.00000000E+00  0.00000000E+00  0.00000000E+00
  0.00000000E+00  0.00000000E+00  0.00000000E+00
  0.00000000E+00  0.00000000E+00  0.00000000E+00
  0.00000000E+00  0.00000000E+00  0.00000000E+00
  0.00000000E+00  0.00000000E+00  0.00000000E+00
  0.00000000E+00  0.00000000E+00  0.00000000E+00
  0.00000000E+00  0.00000000E+00  0.00000000E+00
  0.00000000E+00  0.00000000E+00  0.00000000E+00
  0.00000000E+00  0.00000000E+00  0.00000000E+00
  0.00000000E+00  0.00000000E+00  0.00000000E+00
  0.00000000E+00  0.00000000E+00  0.00000000E+00
  0.00000000E+00  0.00000000E+00  0.00000000E+00
  0.00000000E+00  0.00000000E+00  0.00000000E+00
  0.00000000E+00  0.00000000E+00  0.00000000E+00
  0.00000000E+00  0.00000000E+00  0.00000000E+00
  0.00000000E+00  0.00000000E+00  0.00000000E+00
  0.00000000E+00  0.00000000E+00  0.00000000E+00
  0.00000000E+00  0.00000000E+00  0.00000000E+00
  0.00000000E+00  0.00000000E+00  0.00000000E+00
  0.00000000E+00  0.00000000E+00  0.00000000E+00
  0.00000000E+00  0.00000000E+00  0.00000000E+00
  0.00000000E+00  0.00000000E+00  0.00000000E+00
  0.00000000E+00  0.00000000E+00  0.00000000E+00
  0.00000000E+00  0.00000000E+00  0.00000000E+00
  0.00000000E+00  0.00000000E+00  0.00000000E+00
  0.00000000E+00  0.00000000E+00  0.00000000E+00
  0.00000000E+00  0.00000000E+00  0.00000000E+00
  0.00000000E+00  0.00000000E+00  0.00000000E+00
  0.00000000E+00  0.00000000E+00  0.00000000E+00
  0.00000000E+00  0.00000000E+00  0.00000000E+00
  0.00000000E+00  0.00000000E+00  0.00000000E+00
  0.00000000E+00  0.00000000E+00  0.00000000E+00
  0.00000000E+00  0.00000000E+00  0.00000000E+00
  0.00000000E+00  0.00000000E+00  0.00000000E+00
  0.00000000E+00  0.00000000E+00  0.00000000E+00
  0.00000000E+00  0.00000000E+00  0.00000000E+00
