(Al) Source:.POSCAR_0;Expand:8,8,1;Shaped;Rotate:1/7,16.26[degrees];Mirrorred;Shaped2;Cut:0.86621-0.44194
   1.00000000000000
  56.0109463716    0.0000000000    0.0000000000
   0.0000000000   14.2885067274    0.0000000000
   0.0000000000    0.0000000000    4.0414000000
196
Selective dynamics
Direct
   0.5357142857    0.0200000000    0.5000000000 T T T
   0.5306122449    0.1600000000    0.0000000000 T T T
   0.5255102041    0.3000000000    0.5000000000 T T T
   0.5204081633    0.4400000000    0.0000000000 T T T
   0.5153061224    0.5800000000    0.5000000000 T T T
   0.5102040816    0.7200000000    0.0000000000 T T T
   0.5051020408    0.8600000000    0.5000000000 T T T
   1.0000000000    0.2800000000    0.0000000000 T T T
   0.9948979592    0.4200000000    0.5000000000 T T T
   0.5714285714    0.0400000000    0.0000000000 T T T
   0.5663265306    0.1800000000    0.5000000000 T T T
   0.6071428571    0.0600000000    0.5000000000 T T T
   0.6020408163    0.2000000000    0.0000000000 T T T
   0.5612244898    0.3200000000    0.0000000000 T T T
   0.5561224490    0.4600000000    0.5000000000 T T T
   0.5969387755    0.3400000000    0.5000000000 T T T
   0.5918367347    0.4800000000    0.0000000000 T T T
   0.5510204082    0.6000000000    0.0000000000 T T T
   0.5459183673    0.7400000000    0.5000000000 T T T
   0.5867346939    0.6200000000    0.5000000000 T T T
   0.5816326531    0.7600000000    0.0000000000 T T T
   0.5408163265    0.8800000000    0.0000000000 T T T
   0.5765306122    0.9000000000    0.5000000000 T T T
   0.6428571429    0.0800000000    0.0000000000 T T T
   0.6377551020    0.2200000000    0.5000000000 T T T
   0.6785714286    0.1000000000    0.5000000000 T T T
   0.6734693878    0.2400000000    0.0000000000 T T T
   0.6326530612    0.3600000000    0.0000000000 T T T
   0.6275510204    0.5000000000    0.5000000000 T T T
   0.6683673469    0.3800000000    0.5000000000 T T T
   0.6632653061    0.5200000000    0.0000000000 T T T
   0.6224489796    0.6400000000    0.0000000000 T T T
   0.6173469388    0.7800000000    0.5000000000 T T T
   0.6581632653    0.6600000000    0.5000000000 T T T
   0.6530612245    0.8000000000    0.0000000000 T T T
   0.6122448980    0.9200000000    0.0000000000 T T T
   0.6479591837    0.9400000000    0.5000000000 T T T
   0.7142857143    0.1200000000    0.0000000000 T T T
   0.7091836735    0.2600000000    0.5000000000 T T T
   0.7500000000    0.1400000000    0.5000000000 T T T
   0.7448979592    0.2800000000    0.0000000000 T T T
   0.7040816327    0.4000000000    0.0000000000 T T T
   0.6989795918    0.5400000000    0.5000000000 T T T
   0.7397959184    0.4200000000    0.5000000000 T T T
   0.7346938776    0.5600000000    0.0000000000 T T T
   0.6938775510    0.6800000000    0.0000000000 T T T
   0.6887755102    0.8200000000    0.5000000000 T T T
   0.7295918367    0.7000000000    0.5000000000 T T T
   0.7244897959    0.8400000000    0.0000000000 T T T
   0.6836734694    0.9600000000    0.0000000000 T T T
   0.7193877551    0.9800000000    0.5000000000 T T T
   0.7857142857    0.1600000000    0.0000000000 T T T
   0.7806122449    0.3000000000    0.5000000000 T T T
   0.8214285714    0.1800000000    0.5000000000 T T T
   0.8163265306    0.3200000000    0.0000000000 T T T
   0.7755102041    0.4400000000    0.0000000000 T T T
   0.7704081633    0.5800000000    0.5000000000 T T T
   0.8112244898    0.4600000000    0.5000000000 T T T
   0.8061224490    0.6000000000    0.0000000000 T T T
   0.7653061224    0.7200000000    0.0000000000 T T T
   0.7602040816    0.8600000000    0.5000000000 T T T
   0.8010204082    0.7400000000    0.5000000000 T T T
   0.7959183673    0.8800000000    0.0000000000 T T T
   0.7551020408    1.0000000000    0.0000000000 T T T
   0.7908163265    0.0200000000    0.5000000000 T T T
   0.8265306122    0.0400000000    0.0000000000 T T T
   0.8571428571    0.2000000000    0.0000000000 T T T
   0.8520408163    0.3400000000    0.5000000000 T T T
   0.8928571429    0.2200000000    0.5000000000 T T T
   0.8877551020    0.3600000000    0.0000000000 T T T
   0.8469387755    0.4800000000    0.0000000000 T T T
   0.8418367347    0.6200000000    0.5000000000 T T T
   0.8826530612    0.5000000000    0.5000000000 T T T
   0.8775510204    0.6400000000    0.0000000000 T T T
   0.8367346939    0.7600000000    0.0000000000 T T T
   0.8316326531    0.9000000000    0.5000000000 T T T
   0.8724489796    0.7800000000    0.5000000000 T T T
   0.8673469388    0.9200000000    0.0000000000 T T T
   0.8622448980    0.0600000000    0.5000000000 T T T
   0.8979591837    0.0800000000    0.0000000000 T T T
   0.9285714286    0.2400000000    0.0000000000 T T T
   0.9234693878    0.3800000000    0.5000000000 T T T
   0.9642857143    0.2600000000    0.5000000000 T T T
   0.9591836735    0.4000000000    0.0000000000 T T T
   0.9183673469    0.5200000000    0.0000000000 T T T
   0.9132653061    0.6600000000    0.5000000000 T T T
   0.9540816327    0.5400000000    0.5000000000 T T T
   0.9489795918    0.6800000000    0.0000000000 T T T
   0.9081632653    0.8000000000    0.0000000000 T T T
   0.9030612245    0.9400000000    0.5000000000 T T T
   0.9438775510    0.8200000000    0.5000000000 T T T
   0.9387755102    0.9600000000    0.0000000000 T T T
   0.9336734694    0.1000000000    0.5000000000 T T T
   0.9693877551    0.1200000000    0.0000000000 T T T
   0.9897959184    0.5600000000    0.0000000000 T T T
   0.9846938776    0.7000000000    0.5000000000 T T T
   0.9795918367    0.8400000000    0.0000000000 T T T
   0.9744897959    0.9800000000    0.5000000000 T T T
   0.5000000000    0.0000000000    0.0000000000 T T T
   0.4642857143    0.0200000000    0.5000000000 T T T
   0.4693877551    0.1600000000    0.0000000000 T T T
   0.4744897959    0.3000000000    0.5000000000 T T T
   0.4795918367    0.4400000000    0.0000000000 T T T
   0.4846938776    0.5800000000    0.5000000000 T T T
   0.4897959184    0.7200000000    0.0000000000 T T T
   0.4948979592    0.8600000000    0.5000000000 T T T
   0.0051020408    0.4200000000    0.5000000000 T T T
   0.4285714286    0.0400000000    0.0000000000 T T T
   0.4336734694    0.1800000000    0.5000000000 T T T
   0.3928571429    0.0600000000    0.5000000000 T T T
   0.3979591837    0.2000000000    0.0000000000 T T T
   0.4387755102    0.3200000000    0.0000000000 T T T
   0.4438775510    0.4600000000    0.5000000000 T T T
   0.4030612245    0.3400000000    0.5000000000 T T T
   0.4081632653    0.4800000000    0.0000000000 T T T
   0.4489795918    0.6000000000    0.0000000000 T T T
   0.4540816327    0.7400000000    0.5000000000 T T T
   0.4132653061    0.6200000000    0.5000000000 T T T
   0.4183673469    0.7600000000    0.0000000000 T T T
   0.4591836735    0.8800000000    0.0000000000 T T T
   0.4234693878    0.9000000000    0.5000000000 T T T
   0.3571428571    0.0800000000    0.0000000000 T T T
   0.3622448980    0.2200000000    0.5000000000 T T T
   0.3214285714    0.1000000000    0.5000000000 T T T
   0.3265306122    0.2400000000    0.0000000000 T T T
   0.3673469388    0.3600000000    0.0000000000 T T T
   0.3724489796    0.5000000000    0.5000000000 T T T
   0.3316326531    0.3800000000    0.5000000000 T T T
   0.3367346939    0.5200000000    0.0000000000 T T T
   0.3775510204    0.6400000000    0.0000000000 T T T
   0.3826530612    0.7800000000    0.5000000000 T T T
   0.3418367347    0.6600000000    0.5000000000 T T T
   0.3469387755    0.8000000000    0.0000000000 T T T
   0.3877551020    0.9200000000    0.0000000000 T T T
   0.3520408163    0.9400000000    0.5000000000 T T T
   0.2857142857    0.1200000000    0.0000000000 T T T
   0.2908163265    0.2600000000    0.5000000000 T T T
   0.2500000000    0.1400000000    0.5000000000 T T T
   0.2551020408    0.2800000000    0.0000000000 T T T
   0.2959183673    0.4000000000    0.0000000000 T T T
   0.3010204082    0.5400000000    0.5000000000 T T T
   0.2602040816    0.4200000000    0.5000000000 T T T
   0.2653061224    0.5600000000    0.0000000000 T T T
   0.3061224490    0.6800000000    0.0000000000 T T T
   0.3112244898    0.8200000000    0.5000000000 T T T
   0.2704081633    0.7000000000    0.5000000000 T T T
   0.2755102041    0.8400000000    0.0000000000 T T T
   0.3163265306    0.9600000000    0.0000000000 T T T
   0.2806122449    0.9800000000    0.5000000000 T T T
   0.2142857143    0.1600000000    0.0000000000 T T T
   0.2193877551    0.3000000000    0.5000000000 T T T
   0.1785714286    0.1800000000    0.5000000000 T T T
   0.1836734694    0.3200000000    0.0000000000 T T T
   0.2244897959    0.4400000000    0.0000000000 T T T
   0.2295918367    0.5800000000    0.5000000000 T T T
   0.1887755102    0.4600000000    0.5000000000 T T T
   0.1938775510    0.6000000000    0.0000000000 T T T
   0.2346938776    0.7200000000    0.0000000000 T T T
   0.2397959184    0.8600000000    0.5000000000 T T T
   0.1989795918    0.7400000000    0.5000000000 T T T
   0.2040816327    0.8800000000    0.0000000000 T T T
   0.2448979592    1.0000000000    0.0000000000 T T T
   0.2091836735    0.0200000000    0.5000000000 T T T
   0.1734693878    0.0400000000    0.0000000000 T T T
   0.1428571429    0.2000000000    0.0000000000 T T T
   0.1479591837    0.3400000000    0.5000000000 T T T
   0.1071428571    0.2200000000    0.5000000000 T T T
   0.1122448980    0.3600000000    0.0000000000 T T T
   0.1530612245    0.4800000000    0.0000000000 T T T
   0.1581632653    0.6200000000    0.5000000000 T T T
   0.1173469388    0.5000000000    0.5000000000 T T T
   0.1224489796    0.6400000000    0.0000000000 T T T
   0.1632653061    0.7600000000    0.0000000000 T T T
   0.1683673469    0.9000000000    0.5000000000 T T T
   0.1275510204    0.7800000000    0.5000000000 T T T
   0.1326530612    0.9200000000    0.0000000000 T T T
   0.1377551020    0.0600000000    0.5000000000 T T T
   0.1020408163    0.0800000000    0.0000000000 T T T
   0.0714285714    0.2400000000    0.0000000000 T T T
   0.0765306122    0.3800000000    0.5000000000 T T T
   0.0357142857    0.2600000000    0.5000000000 T T T
   0.0408163265    0.4000000000    0.0000000000 T T T
   0.0816326531    0.5200000000    0.0000000000 T T T
   0.0867346939    0.6600000000    0.5000000000 T T T
   0.0459183673    0.5400000000    0.5000000000 T T T
   0.0510204082    0.6800000000    0.0000000000 T T T
   0.0918367347    0.8000000000    0.0000000000 T T T
   0.0969387755    0.9400000000    0.5000000000 T T T
   0.0561224490    0.8200000000    0.5000000000 T T T
   0.0612244898    0.9600000000    0.0000000000 T T T
   0.0663265306    0.1000000000    0.5000000000 T T T
   0.0306122449    0.1200000000    0.0000000000 T T T
   0.0102040816    0.5600000000    0.0000000000 T T T
   0.0153061224    0.7000000000    0.5000000000 T T T
   0.0204081633    0.8400000000    0.0000000000 T T T
   0.0255102041    0.9800000000    0.5000000000 T T T
