(Al) Source:.POSCAR_0;Expand:4,4,1;Shaped;Rotate:1/7,16.26[degrees];Mirrorred;Shaped2;Cut:0.86621-0.88388
   1.0000000000
  28.0054731858    0.0000000000    0.0000000000
   0.0000000000   14.2885067274    0.0000000000
   0.0000000000    0.0000000000    4.0414000000
  88
Selective dynmaics
Direct
   0.5714285714    0.0200000000    0.5000000000 T T T
   0.5612244898    0.1600000000    0.0000000000 T T T
   1.0000000000    0.1400000000    0.5000000000 T T T
   0.6428571429    0.0400000000    0.0000000000 T T T
   0.6326530612    0.1800000000    0.5000000000 T T T
   0.7142857143    0.0600000000    0.5000000000 T T T
   0.7040816327    0.2000000000    0.0000000000 T T T
   0.6224489796    0.3200000000    0.0000000000 T T T
   0.6122448980    0.4600000000    0.5000000000 T T T
   0.6938775510    0.3400000000    0.5000000000 T T T
   0.6836734694    0.4800000000    0.0000000000 T T T
   0.6020408163    0.6000000000    0.0000000000 T T T
   0.5918367347    0.7400000000    0.5000000000 T T T
   0.6734693878    0.6200000000    0.5000000000 T T T
   0.6632653061    0.7600000000    0.0000000000 T T T
   0.5816326531    0.8800000000    0.0000000000 T T T
   0.6530612245    0.9000000000    0.5000000000 T T T
   0.7857142857    0.0800000000    0.0000000000 T T T
   0.7755102041    0.2200000000    0.5000000000 T T T
   0.8571428571    0.1000000000    0.5000000000 T T T
   0.8469387755    0.2400000000    0.0000000000 T T T
   0.7653061224    0.3600000000    0.0000000000 T T T
   0.7551020408    0.5000000000    0.5000000000 T T T
   0.8367346939    0.3800000000    0.5000000000 T T T
   0.8265306122    0.5200000000    0.0000000000 T T T
   0.7448979592    0.6400000000    0.0000000000 T T T
   0.7346938776    0.7800000000    0.5000000000 T T T
   0.8163265306    0.6600000000    0.5000000000 T T T
   0.8061224490    0.8000000000    0.0000000000 T T T
   0.7244897959    0.9200000000    0.0000000000 T T T
   0.7959183673    0.9400000000    0.5000000000 T T T
   0.9285714286    0.1200000000    0.0000000000 T T T
   0.9183673469    0.2600000000    0.5000000000 T T T
   0.9897959184    0.2800000000    0.0000000000 T T T
   0.9081632653    0.4000000000    0.0000000000 T T T
   0.8979591837    0.5400000000    0.5000000000 T T T
   0.9795918367    0.4200000000    0.5000000000 T T T
   0.9693877551    0.5600000000    0.0000000000 T T T
   0.8877551020    0.6800000000    0.0000000000 T T T
   0.8775510204    0.8200000000    0.5000000000 T T T
   0.9591836735    0.7000000000    0.5000000000 T T T
   0.9489795918    0.8400000000    0.0000000000 T T T
   0.8673469388    0.9600000000    0.0000000000 T T T
   0.9387755102    0.9800000000    0.5000000000 T T T
   0.5000000000    0.0000000000    0.0000000000 T T T
   0.4285714286    0.0200000000    0.5000000000 T T T
   0.4387755102    0.1600000000    0.0000000000 T T T
   0.4489795918    0.3000000000    0.5000000000 T T T
   0.4591836735    0.4400000000    0.0000000000 T T T
   0.4693877551    0.5800000000    0.5000000000 T T T
   0.4795918367    0.7200000000    0.0000000000 T T T
   0.4897959184    0.8600000000    0.5000000000 T T T
   0.3571428571    0.0400000000    0.0000000000 T T T
   0.3673469388    0.1800000000    0.5000000000 T T T
   0.2857142857    0.0600000000    0.5000000000 T T T
   0.2959183673    0.2000000000    0.0000000000 T T T
   0.3775510204    0.3200000000    0.0000000000 T T T
   0.3877551020    0.4600000000    0.5000000000 T T T
   0.3061224490    0.3400000000    0.5000000000 T T T
   0.3163265306    0.4800000000    0.0000000000 T T T
   0.3979591837    0.6000000000    0.0000000000 T T T
   0.4081632653    0.7400000000    0.5000000000 T T T
   0.3265306122    0.6200000000    0.5000000000 T T T
   0.3367346939    0.7600000000    0.0000000000 T T T
   0.4183673469    0.8800000000    0.0000000000 T T T
   0.3469387755    0.9000000000    0.5000000000 T T T
   0.2142857143    0.0800000000    0.0000000000 T T T
   0.2244897959    0.2200000000    0.5000000000 T T T
   0.1428571429    0.1000000000    0.5000000000 T T T
   0.1530612245    0.2400000000    0.0000000000 T T T
   0.2346938776    0.3600000000    0.0000000000 T T T
   0.2448979592    0.5000000000    0.5000000000 T T T
   0.1632653061    0.3800000000    0.5000000000 T T T
   0.1734693878    0.5200000000    0.0000000000 T T T
   0.2551020408    0.6400000000    0.0000000000 T T T
   0.2653061224    0.7800000000    0.5000000000 T T T
   0.1836734694    0.6600000000    0.5000000000 T T T
   0.1938775510    0.8000000000    0.0000000000 T T T
   0.2755102041    0.9200000000    0.0000000000 T T T
   0.2040816327    0.9400000000    0.5000000000 T T T
   0.0714285714    0.1200000000    0.0000000000 T T T
   0.0816326531    0.2600000000    0.5000000000 T T T
   0.0918367347    0.4000000000    0.0000000000 T T T
   0.1020408163    0.5400000000    0.5000000000 T T T
   0.1122448980    0.6800000000    0.0000000000 T T T
   0.1224489796    0.8200000000    0.5000000000 T T T
   0.1326530612    0.9600000000    0.0000000000 T T T
   0.0612244898    0.9800000000    0.5000000000 T T T
